nbNodes = 12;
nbVehi = 3;
nbServi = 4;

e = 
 [ 0,  388,  436,  104,  220,   70,  328,  398,  446,  177,  359,    0,];

l = 
 [480, 480, 520, 166, 320, 151, 407, 504, 519, 244, 459, 480,];

a = 
 [|  1,  1,  1,  1,
 |  1,  1,  0,  1,
 |  1,  1,  1,  1,
 |];

p = array3d(1..nbNodes,1..nbVehi,1..nbServi,
[  0,  0,  0,  0,	  0,  0,  0,  0,	  0,  0,  0,  0,	
 10, 15, 26, 28,	 24, 27, 29, 18,	 12, 26, 25, 16,	
 21, 10, 15, 20,	 22, 20, 27, 15,	 19, 29, 22, 15,	
 17, 12, 21, 19,	 26, 19, 27, 17,	 14, 25, 17, 15,	
 12, 16, 11, 23,	 15, 24, 19, 14,	 26, 31, 21, 27,	
 16, 26, 16, 23,	 15, 25, 23, 23,	 25, 17, 12, 24,	
 24, 10, 13, 10,	 25, 18, 15, 10,	 23, 12, 19, 18,	
 12, 10, 24, 22,	 15, 23, 18, 20,	 21, 24, 15, 24,	
 11, 20, 14, 21,	 28, 15, 20, 14,	 17, 22, 25, 10,	
 29, 12, 23, 22,	 12, 26, 16, 11,	 12, 10, 19, 12,	
 11, 24, 25, 16,	 23, 28, 22, 24,	 16, 24, 16, 15,	
  0,  0,  0,  0,	  0,  0,  0,  0,	  0,  0,  0,  0,	
]);

rs = 
[|  true,  true,  true,  true,	 	
|  false,  false,  true,  false,	  	
|  true,  false,  false,  false,	  	
|  false,  false,  false,  true,	  	
|  false,  false,  false,  true,	  	
|  true,  false,  false,  false,	  	
|  true,  false,  false,  false,	  	
|  false,  false,  false,  true,	  	
|  false,  true,  false,  false,	  	
|  false,  true,  false,  false,	  	
|  false,  false,  true,  false,	  	
|  true,  true,  true,  true,	  	
|];

d=[|0, 24, 0, 0, 10, 3, 13, 25, 3, 11, 2, 0, 
|24, 0, 24, 24, 34, 21, 36, 33, 27, 31, 23, 24, 
|0, 24, 0, 0, 10, 3, 13, 25, 3, 11, 2, 0, 
|0, 24, 0, 0, 10, 3, 13, 25, 3, 11, 2, 0, 
|10, 34, 10, 10, 0, 13, 7, 26, 7, 12, 11, 10, 
|3, 21, 3, 3, 13, 0, 15, 26, 6, 12, 4, 3, 
|13, 36, 13, 13, 7, 15, 0, 34, 10, 6, 15, 13, 
|25, 33, 25, 25, 26, 26, 34, 0, 26, 36, 23, 25, 
|3, 27, 3, 3, 7, 6, 10, 26, 0, 9, 5, 3, 
|11, 31, 11, 11, 12, 12, 6, 36, 9, 0, 13, 11, 
|2, 23, 2, 2, 11, 4, 15, 23, 5, 13, 0, 2, 
|0, 24, 0, 0, 10, 3, 13, 25, 3, 11, 2, 0, 
|];
